8-WQUEENS-6-0 8 8 36 9
8 8 8 8 8 8 8 8 
2 0 1 0 22
0 0 9
0 1 9
1 0 9
1 1 9
1 2 9
2 1 9
2 2 9
2 3 9
3 2 9
3 3 9
3 4 9
4 3 9
4 4 9
4 5 9
5 4 9
5 5 9
5 6 9
6 5 9
6 6 9
6 7 9
7 6 9
7 7 9
2 0 2 0 20
0 0 9
0 2 9
1 1 9
1 3 9
2 0 9
2 2 9
2 4 9
3 1 9
3 3 9
3 5 9
4 2 9
4 4 9
4 6 9
5 3 9
5 5 9
5 7 9
6 4 9
6 6 9
7 5 9
7 7 9
2 0 3 0 18
0 0 9
0 3 9
1 1 9
1 4 9
2 2 9
2 5 9
3 0 9
3 3 9
3 6 9
4 1 9
4 4 9
4 7 9
5 2 9
5 5 9
6 3 9
6 6 9
7 4 9
7 7 9
2 0 4 0 16
0 0 9
0 4 9
1 1 9
1 5 9
2 2 9
2 6 9
3 3 9
3 7 9
4 0 9
4 4 9
5 1 9
5 5 9
6 2 9
6 6 9
7 3 9
7 7 9
2 0 5 0 14
0 0 9
0 5 9
1 1 9
1 6 9
2 2 9
2 7 9
3 3 9
4 4 9
5 0 9
5 5 9
6 1 9
6 6 9
7 2 9
7 7 9
2 0 6 0 12
0 0 9
0 6 9
1 1 9
1 7 9
2 2 9
3 3 9
4 4 9
5 5 9
6 0 9
6 6 9
7 1 9
7 7 9
2 0 7 0 10
0 0 9
0 7 9
1 1 9
2 2 9
3 3 9
4 4 9
5 5 9
6 6 9
7 0 9
7 7 9
2 1 2 0 22
0 0 9
0 1 9
1 0 9
1 1 9
1 2 9
2 1 9
2 2 9
2 3 9
3 2 9
3 3 9
3 4 9
4 3 9
4 4 9
4 5 9
5 4 9
5 5 9
5 6 9
6 5 9
6 6 9
6 7 9
7 6 9
7 7 9
2 1 3 0 20
0 0 9
0 2 9
1 1 9
1 3 9
2 0 9
2 2 9
2 4 9
3 1 9
3 3 9
3 5 9
4 2 9
4 4 9
4 6 9
5 3 9
5 5 9
5 7 9
6 4 9
6 6 9
7 5 9
7 7 9
2 1 4 0 18
0 0 9
0 3 9
1 1 9
1 4 9
2 2 9
2 5 9
3 0 9
3 3 9
3 6 9
4 1 9
4 4 9
4 7 9
5 2 9
5 5 9
6 3 9
6 6 9
7 4 9
7 7 9
2 1 5 0 16
0 0 9
0 4 9
1 1 9
1 5 9
2 2 9
2 6 9
3 3 9
3 7 9
4 0 9
4 4 9
5 1 9
5 5 9
6 2 9
6 6 9
7 3 9
7 7 9
2 1 6 0 14
0 0 9
0 5 9
1 1 9
1 6 9
2 2 9
2 7 9
3 3 9
4 4 9
5 0 9
5 5 9
6 1 9
6 6 9
7 2 9
7 7 9
2 1 7 0 12
0 0 9
0 6 9
1 1 9
1 7 9
2 2 9
3 3 9
4 4 9
5 5 9
6 0 9
6 6 9
7 1 9
7 7 9
2 2 3 0 22
0 0 9
0 1 9
1 0 9
1 1 9
1 2 9
2 1 9
2 2 9
2 3 9
3 2 9
3 3 9
3 4 9
4 3 9
4 4 9
4 5 9
5 4 9
5 5 9
5 6 9
6 5 9
6 6 9
6 7 9
7 6 9
7 7 9
2 2 4 0 20
0 0 9
0 2 9
1 1 9
1 3 9
2 0 9
2 2 9
2 4 9
3 1 9
3 3 9
3 5 9
4 2 9
4 4 9
4 6 9
5 3 9
5 5 9
5 7 9
6 4 9
6 6 9
7 5 9
7 7 9
2 2 5 0 18
0 0 9
0 3 9
1 1 9
1 4 9
2 2 9
2 5 9
3 0 9
3 3 9
3 6 9
4 1 9
4 4 9
4 7 9
5 2 9
5 5 9
6 3 9
6 6 9
7 4 9
7 7 9
2 2 6 0 16
0 0 9
0 4 9
1 1 9
1 5 9
2 2 9
2 6 9
3 3 9
3 7 9
4 0 9
4 4 9
5 1 9
5 5 9
6 2 9
6 6 9
7 3 9
7 7 9
2 2 7 0 14
0 0 9
0 5 9
1 1 9
1 6 9
2 2 9
2 7 9
3 3 9
4 4 9
5 0 9
5 5 9
6 1 9
6 6 9
7 2 9
7 7 9
2 3 4 0 22
0 0 9
0 1 9
1 0 9
1 1 9
1 2 9
2 1 9
2 2 9
2 3 9
3 2 9
3 3 9
3 4 9
4 3 9
4 4 9
4 5 9
5 4 9
5 5 9
5 6 9
6 5 9
6 6 9
6 7 9
7 6 9
7 7 9
2 3 5 0 20
0 0 9
0 2 9
1 1 9
1 3 9
2 0 9
2 2 9
2 4 9
3 1 9
3 3 9
3 5 9
4 2 9
4 4 9
4 6 9
5 3 9
5 5 9
5 7 9
6 4 9
6 6 9
7 5 9
7 7 9
2 3 6 0 18
0 0 9
0 3 9
1 1 9
1 4 9
2 2 9
2 5 9
3 0 9
3 3 9
3 6 9
4 1 9
4 4 9
4 7 9
5 2 9
5 5 9
6 3 9
6 6 9
7 4 9
7 7 9
2 3 7 0 16
0 0 9
0 4 9
1 1 9
1 5 9
2 2 9
2 6 9
3 3 9
3 7 9
4 0 9
4 4 9
5 1 9
5 5 9
6 2 9
6 6 9
7 3 9
7 7 9
2 4 5 0 22
0 0 9
0 1 9
1 0 9
1 1 9
1 2 9
2 1 9
2 2 9
2 3 9
3 2 9
3 3 9
3 4 9
4 3 9
4 4 9
4 5 9
5 4 9
5 5 9
5 6 9
6 5 9
6 6 9
6 7 9
7 6 9
7 7 9
2 4 6 0 20
0 0 9
0 2 9
1 1 9
1 3 9
2 0 9
2 2 9
2 4 9
3 1 9
3 3 9
3 5 9
4 2 9
4 4 9
4 6 9
5 3 9
5 5 9
5 7 9
6 4 9
6 6 9
7 5 9
7 7 9
2 4 7 0 18
0 0 9
0 3 9
1 1 9
1 4 9
2 2 9
2 5 9
3 0 9
3 3 9
3 6 9
4 1 9
4 4 9
4 7 9
5 2 9
5 5 9
6 3 9
6 6 9
7 4 9
7 7 9
2 5 6 0 22
0 0 9
0 1 9
1 0 9
1 1 9
1 2 9
2 1 9
2 2 9
2 3 9
3 2 9
3 3 9
3 4 9
4 3 9
4 4 9
4 5 9
5 4 9
5 5 9
5 6 9
6 5 9
6 6 9
6 7 9
7 6 9
7 7 9
2 5 7 0 20
0 0 9
0 2 9
1 1 9
1 3 9
2 0 9
2 2 9
2 4 9
3 1 9
3 3 9
3 5 9
4 2 9
4 4 9
4 6 9
5 3 9
5 5 9
5 7 9
6 4 9
6 6 9
7 5 9
7 7 9
2 6 7 0 22
0 0 9
0 1 9
1 0 9
1 1 9
1 2 9
2 1 9
2 2 9
2 3 9
3 2 9
3 3 9
3 4 9
4 3 9
4 4 9
4 5 9
5 4 9
5 5 9
5 6 9
6 5 9
6 6 9
6 7 9
7 6 9
7 7 9
1 0 0 6
0 1
2 1
3 1
4 1
5 1
7 1
1 1 0 6
1 1
2 1
3 1
4 1
5 1
6 1
1 2 0 6
0 1
1 1
2 1
3 1
5 1
7 1
1 3 0 6
0 1
2 1
4 1
5 1
6 1
7 1
1 4 0 6
1 1
2 1
4 1
5 1
6 1
7 1
1 5 0 6
0 1
1 1
2 1
3 1
4 1
6 1
1 6 0 6
0 1
1 1
2 1
3 1
4 1
5 1
1 7 0 6
0 1
3 1
4 1
5 1
6 1
7 1
